17402
0 0 0 0 1 0 0 1 1 1 1 1 0 1 0 0 1 0 1 0 1 1 0 0 0 1 0 0 0 0
21 10 21 11 13 8 16 18 21 13 20 13 18 21 11 10 16 18 21 9 8 16 16 16 11 18 20 9 25 25 4 13 11 9 4 21 20 21 11 11 25 11 18 21 21 7 20 8 25 13 10 13 8 7 13 10 18 4 13 25 10 13 8 7 9 4 13 20 9 4 20 13 18 21 4 10 7 8 7 13 11 13 18 10 4 18 8 9 4 8 4 13 8 9 4 20 20 18 7 11 4 13 11 9 4 10 20 8 25 9 10 20 9 7 7 10 16 8 7 9 7 7 8 7 7 21 20 8 8 16 10 16 16 7 7 21 8 9 25 11 11 21 10 9 4 10 8 16 25 9